&inputpp
    outdir = './tmp'
    prefix = 'graphene'
    seedname = 'graphene'
    write_unk = .true.
/
