&CONTROL
    calculation = 'scf',
    restart_mode = 'from_scratch'
    prefix = 'graphene',
    outdir = './tmp',
    pseudo_dir = '.',
/
&SYSTEM
    ibrav = 0,                ! User-defined cell
    nat = 2,                  ! Two atoms per cell
    ntyp = 1,                 ! One atomic type (Carbon)
    ecutwfc = 60.0,           ! Adjust according to your convergence tests
    nbnd = 24,
    occupations = 'smearing',
    smearing = 'mv',
    degauss = 0.01,
/
&ELECTRONS
    conv_thr = 1.0d-8,
/
ATOMIC_SPECIES
    C  12.0107 C.pbe-n-kjpaw_psl.1.0.0.UPF 
ATOMIC_POSITIONS crystal
    C   0.333333   0.333333   0.5000000
    C   0.666667   0.666667   0.5000000
CELL_PARAMETERS angstrom
   2.46    0.00    0.00
   1.23    2.13    0.00
   0.00    0.00   15.00
K_POINTS automatic
  6  6  6    0  0  0
