&BANDS
  prefix = 'silicon'
  outdir = './tmp/'
  filband = 'silicon_band.dat'
/

