&CONTROL
    calculation = 'scf',
    restart_mode = 'from_scratch'
    prefix = 'silicon',
    outdir = './tmp',
    pseudo_dir = '.',
/
&SYSTEM
    ibrav = 0,                ! User-defined cell
    nat = 2,                  ! Two atoms per cell
    ntyp = 1,                 ! One atomic type (Carbon)
    ecutwfc = 60.0,           ! Adjust according to your convergence tests
    occupations = 'smearing',
    smearing = 'mv',
    degauss = 0.01,
/
&ELECTRONS
    conv_thr = 1.0d-8,
/
ATOMIC_SPECIES
   Si  28.086   Si.pbe-n-kjpaw_psl.1.0.0.UPF 
ATOMIC_POSITIONS crystal
   Si  -0.25  0.75 -0.25 
   Si   0.00  0.00  0.00
CELL_PARAMETERS angstrom
   2.70    0.00    2.70
   0.00    2.70    2.70
   2.70    2.70    0.00
K_POINTS automatic
 10 10 10    0  0  0
