&CONTROL
    calculation = 'nscf',
    restart_mode = 'from_scratch'
    prefix = 'graphene',
    outdir = './tmp',
    pseudo_dir = '.',
/
&SYSTEM
    ibrav = 0,                ! User-defined cell
    nat = 2,                  ! Two atoms per cell
    ntyp = 1,                 ! One atomic type (Carbon)
    ecutwfc = 60.0,           ! Adjust according to your convergence tests
    nbnd = 24,
    occupations = 'smearing',
    smearing = 'mv',
    degauss = 0.01,
    nosym=.true.,
/
&ELECTRONS
    conv_thr = 1.0d-8,
/
ATOMIC_SPECIES
    C  12.0107 C.pbe-n-kjpaw_psl.1.0.0.UPF 
ATOMIC_POSITIONS crystal
    C   0.333333   0.333333   0.5000000
    C   0.666667   0.666667   0.5000000
CELL_PARAMETERS angstrom
   2.46    0.00    0.00
   1.23    2.13    0.00
   0.00    0.00   15.00
K_POINTS crystal
216
  0.00000000  0.00000000  0.00000000  4.629630e-03
  0.00000000  0.00000000  0.16666667  4.629630e-03
  0.00000000  0.00000000  0.33333333  4.629630e-03
  0.00000000  0.00000000  0.50000000  4.629630e-03
  0.00000000  0.00000000  0.66666667  4.629630e-03
  0.00000000  0.00000000  0.83333333  4.629630e-03
  0.00000000  0.16666667  0.00000000  4.629630e-03
  0.00000000  0.16666667  0.16666667  4.629630e-03
  0.00000000  0.16666667  0.33333333  4.629630e-03
  0.00000000  0.16666667  0.50000000  4.629630e-03
  0.00000000  0.16666667  0.66666667  4.629630e-03
  0.00000000  0.16666667  0.83333333  4.629630e-03
  0.00000000  0.33333333  0.00000000  4.629630e-03
  0.00000000  0.33333333  0.16666667  4.629630e-03
  0.00000000  0.33333333  0.33333333  4.629630e-03
  0.00000000  0.33333333  0.50000000  4.629630e-03
  0.00000000  0.33333333  0.66666667  4.629630e-03
  0.00000000  0.33333333  0.83333333  4.629630e-03
  0.00000000  0.50000000  0.00000000  4.629630e-03
  0.00000000  0.50000000  0.16666667  4.629630e-03
  0.00000000  0.50000000  0.33333333  4.629630e-03
  0.00000000  0.50000000  0.50000000  4.629630e-03
  0.00000000  0.50000000  0.66666667  4.629630e-03
  0.00000000  0.50000000  0.83333333  4.629630e-03
  0.00000000  0.66666667  0.00000000  4.629630e-03
  0.00000000  0.66666667  0.16666667  4.629630e-03
  0.00000000  0.66666667  0.33333333  4.629630e-03
  0.00000000  0.66666667  0.50000000  4.629630e-03
  0.00000000  0.66666667  0.66666667  4.629630e-03
  0.00000000  0.66666667  0.83333333  4.629630e-03
  0.00000000  0.83333333  0.00000000  4.629630e-03
  0.00000000  0.83333333  0.16666667  4.629630e-03
  0.00000000  0.83333333  0.33333333  4.629630e-03
  0.00000000  0.83333333  0.50000000  4.629630e-03
  0.00000000  0.83333333  0.66666667  4.629630e-03
  0.00000000  0.83333333  0.83333333  4.629630e-03
  0.16666667  0.00000000  0.00000000  4.629630e-03
  0.16666667  0.00000000  0.16666667  4.629630e-03
  0.16666667  0.00000000  0.33333333  4.629630e-03
  0.16666667  0.00000000  0.50000000  4.629630e-03
  0.16666667  0.00000000  0.66666667  4.629630e-03
  0.16666667  0.00000000  0.83333333  4.629630e-03
  0.16666667  0.16666667  0.00000000  4.629630e-03
  0.16666667  0.16666667  0.16666667  4.629630e-03
  0.16666667  0.16666667  0.33333333  4.629630e-03
  0.16666667  0.16666667  0.50000000  4.629630e-03
  0.16666667  0.16666667  0.66666667  4.629630e-03
  0.16666667  0.16666667  0.83333333  4.629630e-03
  0.16666667  0.33333333  0.00000000  4.629630e-03
  0.16666667  0.33333333  0.16666667  4.629630e-03
  0.16666667  0.33333333  0.33333333  4.629630e-03
  0.16666667  0.33333333  0.50000000  4.629630e-03
  0.16666667  0.33333333  0.66666667  4.629630e-03
  0.16666667  0.33333333  0.83333333  4.629630e-03
  0.16666667  0.50000000  0.00000000  4.629630e-03
  0.16666667  0.50000000  0.16666667  4.629630e-03
  0.16666667  0.50000000  0.33333333  4.629630e-03
  0.16666667  0.50000000  0.50000000  4.629630e-03
  0.16666667  0.50000000  0.66666667  4.629630e-03
  0.16666667  0.50000000  0.83333333  4.629630e-03
  0.16666667  0.66666667  0.00000000  4.629630e-03
  0.16666667  0.66666667  0.16666667  4.629630e-03
  0.16666667  0.66666667  0.33333333  4.629630e-03
  0.16666667  0.66666667  0.50000000  4.629630e-03
  0.16666667  0.66666667  0.66666667  4.629630e-03
  0.16666667  0.66666667  0.83333333  4.629630e-03
  0.16666667  0.83333333  0.00000000  4.629630e-03
  0.16666667  0.83333333  0.16666667  4.629630e-03
  0.16666667  0.83333333  0.33333333  4.629630e-03
  0.16666667  0.83333333  0.50000000  4.629630e-03
  0.16666667  0.83333333  0.66666667  4.629630e-03
  0.16666667  0.83333333  0.83333333  4.629630e-03
  0.33333333  0.00000000  0.00000000  4.629630e-03
  0.33333333  0.00000000  0.16666667  4.629630e-03
  0.33333333  0.00000000  0.33333333  4.629630e-03
  0.33333333  0.00000000  0.50000000  4.629630e-03
  0.33333333  0.00000000  0.66666667  4.629630e-03
  0.33333333  0.00000000  0.83333333  4.629630e-03
  0.33333333  0.16666667  0.00000000  4.629630e-03
  0.33333333  0.16666667  0.16666667  4.629630e-03
  0.33333333  0.16666667  0.33333333  4.629630e-03
  0.33333333  0.16666667  0.50000000  4.629630e-03
  0.33333333  0.16666667  0.66666667  4.629630e-03
  0.33333333  0.16666667  0.83333333  4.629630e-03
  0.33333333  0.33333333  0.00000000  4.629630e-03
  0.33333333  0.33333333  0.16666667  4.629630e-03
  0.33333333  0.33333333  0.33333333  4.629630e-03
  0.33333333  0.33333333  0.50000000  4.629630e-03
  0.33333333  0.33333333  0.66666667  4.629630e-03
  0.33333333  0.33333333  0.83333333  4.629630e-03
  0.33333333  0.50000000  0.00000000  4.629630e-03
  0.33333333  0.50000000  0.16666667  4.629630e-03
  0.33333333  0.50000000  0.33333333  4.629630e-03
  0.33333333  0.50000000  0.50000000  4.629630e-03
  0.33333333  0.50000000  0.66666667  4.629630e-03
  0.33333333  0.50000000  0.83333333  4.629630e-03
  0.33333333  0.66666667  0.00000000  4.629630e-03
  0.33333333  0.66666667  0.16666667  4.629630e-03
  0.33333333  0.66666667  0.33333333  4.629630e-03
  0.33333333  0.66666667  0.50000000  4.629630e-03
  0.33333333  0.66666667  0.66666667  4.629630e-03
  0.33333333  0.66666667  0.83333333  4.629630e-03
  0.33333333  0.83333333  0.00000000  4.629630e-03
  0.33333333  0.83333333  0.16666667  4.629630e-03
  0.33333333  0.83333333  0.33333333  4.629630e-03
  0.33333333  0.83333333  0.50000000  4.629630e-03
  0.33333333  0.83333333  0.66666667  4.629630e-03
  0.33333333  0.83333333  0.83333333  4.629630e-03
  0.50000000  0.00000000  0.00000000  4.629630e-03
  0.50000000  0.00000000  0.16666667  4.629630e-03
  0.50000000  0.00000000  0.33333333  4.629630e-03
  0.50000000  0.00000000  0.50000000  4.629630e-03
  0.50000000  0.00000000  0.66666667  4.629630e-03
  0.50000000  0.00000000  0.83333333  4.629630e-03
  0.50000000  0.16666667  0.00000000  4.629630e-03
  0.50000000  0.16666667  0.16666667  4.629630e-03
  0.50000000  0.16666667  0.33333333  4.629630e-03
  0.50000000  0.16666667  0.50000000  4.629630e-03
  0.50000000  0.16666667  0.66666667  4.629630e-03
  0.50000000  0.16666667  0.83333333  4.629630e-03
  0.50000000  0.33333333  0.00000000  4.629630e-03
  0.50000000  0.33333333  0.16666667  4.629630e-03
  0.50000000  0.33333333  0.33333333  4.629630e-03
  0.50000000  0.33333333  0.50000000  4.629630e-03
  0.50000000  0.33333333  0.66666667  4.629630e-03
  0.50000000  0.33333333  0.83333333  4.629630e-03
  0.50000000  0.50000000  0.00000000  4.629630e-03
  0.50000000  0.50000000  0.16666667  4.629630e-03
  0.50000000  0.50000000  0.33333333  4.629630e-03
  0.50000000  0.50000000  0.50000000  4.629630e-03
  0.50000000  0.50000000  0.66666667  4.629630e-03
  0.50000000  0.50000000  0.83333333  4.629630e-03
  0.50000000  0.66666667  0.00000000  4.629630e-03
  0.50000000  0.66666667  0.16666667  4.629630e-03
  0.50000000  0.66666667  0.33333333  4.629630e-03
  0.50000000  0.66666667  0.50000000  4.629630e-03
  0.50000000  0.66666667  0.66666667  4.629630e-03
  0.50000000  0.66666667  0.83333333  4.629630e-03
  0.50000000  0.83333333  0.00000000  4.629630e-03
  0.50000000  0.83333333  0.16666667  4.629630e-03
  0.50000000  0.83333333  0.33333333  4.629630e-03
  0.50000000  0.83333333  0.50000000  4.629630e-03
  0.50000000  0.83333333  0.66666667  4.629630e-03
  0.50000000  0.83333333  0.83333333  4.629630e-03
  0.66666667  0.00000000  0.00000000  4.629630e-03
  0.66666667  0.00000000  0.16666667  4.629630e-03
  0.66666667  0.00000000  0.33333333  4.629630e-03
  0.66666667  0.00000000  0.50000000  4.629630e-03
  0.66666667  0.00000000  0.66666667  4.629630e-03
  0.66666667  0.00000000  0.83333333  4.629630e-03
  0.66666667  0.16666667  0.00000000  4.629630e-03
  0.66666667  0.16666667  0.16666667  4.629630e-03
  0.66666667  0.16666667  0.33333333  4.629630e-03
  0.66666667  0.16666667  0.50000000  4.629630e-03
  0.66666667  0.16666667  0.66666667  4.629630e-03
  0.66666667  0.16666667  0.83333333  4.629630e-03
  0.66666667  0.33333333  0.00000000  4.629630e-03
  0.66666667  0.33333333  0.16666667  4.629630e-03
  0.66666667  0.33333333  0.33333333  4.629630e-03
  0.66666667  0.33333333  0.50000000  4.629630e-03
  0.66666667  0.33333333  0.66666667  4.629630e-03
  0.66666667  0.33333333  0.83333333  4.629630e-03
  0.66666667  0.50000000  0.00000000  4.629630e-03
  0.66666667  0.50000000  0.16666667  4.629630e-03
  0.66666667  0.50000000  0.33333333  4.629630e-03
  0.66666667  0.50000000  0.50000000  4.629630e-03
  0.66666667  0.50000000  0.66666667  4.629630e-03
  0.66666667  0.50000000  0.83333333  4.629630e-03
  0.66666667  0.66666667  0.00000000  4.629630e-03
  0.66666667  0.66666667  0.16666667  4.629630e-03
  0.66666667  0.66666667  0.33333333  4.629630e-03
  0.66666667  0.66666667  0.50000000  4.629630e-03
  0.66666667  0.66666667  0.66666667  4.629630e-03
  0.66666667  0.66666667  0.83333333  4.629630e-03
  0.66666667  0.83333333  0.00000000  4.629630e-03
  0.66666667  0.83333333  0.16666667  4.629630e-03
  0.66666667  0.83333333  0.33333333  4.629630e-03
  0.66666667  0.83333333  0.50000000  4.629630e-03
  0.66666667  0.83333333  0.66666667  4.629630e-03
  0.66666667  0.83333333  0.83333333  4.629630e-03
  0.83333333  0.00000000  0.00000000  4.629630e-03
  0.83333333  0.00000000  0.16666667  4.629630e-03
  0.83333333  0.00000000  0.33333333  4.629630e-03
  0.83333333  0.00000000  0.50000000  4.629630e-03
  0.83333333  0.00000000  0.66666667  4.629630e-03
  0.83333333  0.00000000  0.83333333  4.629630e-03
  0.83333333  0.16666667  0.00000000  4.629630e-03
  0.83333333  0.16666667  0.16666667  4.629630e-03
  0.83333333  0.16666667  0.33333333  4.629630e-03
  0.83333333  0.16666667  0.50000000  4.629630e-03
  0.83333333  0.16666667  0.66666667  4.629630e-03
  0.83333333  0.16666667  0.83333333  4.629630e-03
  0.83333333  0.33333333  0.00000000  4.629630e-03
  0.83333333  0.33333333  0.16666667  4.629630e-03
  0.83333333  0.33333333  0.33333333  4.629630e-03
  0.83333333  0.33333333  0.50000000  4.629630e-03
  0.83333333  0.33333333  0.66666667  4.629630e-03
  0.83333333  0.33333333  0.83333333  4.629630e-03
  0.83333333  0.50000000  0.00000000  4.629630e-03
  0.83333333  0.50000000  0.16666667  4.629630e-03
  0.83333333  0.50000000  0.33333333  4.629630e-03
  0.83333333  0.50000000  0.50000000  4.629630e-03
  0.83333333  0.50000000  0.66666667  4.629630e-03
  0.83333333  0.50000000  0.83333333  4.629630e-03
  0.83333333  0.66666667  0.00000000  4.629630e-03
  0.83333333  0.66666667  0.16666667  4.629630e-03
  0.83333333  0.66666667  0.33333333  4.629630e-03
  0.83333333  0.66666667  0.50000000  4.629630e-03
  0.83333333  0.66666667  0.66666667  4.629630e-03
  0.83333333  0.66666667  0.83333333  4.629630e-03
  0.83333333  0.83333333  0.00000000  4.629630e-03
  0.83333333  0.83333333  0.16666667  4.629630e-03
  0.83333333  0.83333333  0.33333333  4.629630e-03
  0.83333333  0.83333333  0.50000000  4.629630e-03
  0.83333333  0.83333333  0.66666667  4.629630e-03
  0.83333333  0.83333333  0.83333333  4.629630e-03
