&inputpp
    outdir = './tmp'
    prefix = 'silicon'
    seedname = 'silicon'
    write_unk = .true.
/
