&CONTROL
    calculation = 'nscf',
    restart_mode = 'from_scratch'
    prefix = 'silicon',
    outdir = './tmp',
    pseudo_dir = '.',
/
&SYSTEM
    ibrav = 0,                ! User-defined cell
    nat = 2,                  ! Two atoms per cell
    ntyp = 1,                 ! One atomic type (Carbon)
    ecutwfc = 60.0,           ! Adjust according to your convergence tests
    occupations = 'smearing',
    smearing = 'mv',
    degauss = 0.01,
    nosym=.true.,
/
&ELECTRONS
    conv_thr = 1.0d-8,
/
ATOMIC_SPECIES
   Si  28.086  Si.pbe-n-kjpaw_psl.1.0.0.UPF 
ATOMIC_POSITIONS crystal
   Si  -0.25  0.75 -0.25 
   Si   0.00  0.00  0.00
CELL_PARAMETERS angstrom
   2.70    0.00    2.70
   0.00    2.70    2.70
   2.70    2.70    0.00
K_POINTS crystal_b
5
  0.0000 0.5000 0.0000 20  !L
  0.0000 0.0000 0.0000 30  !G
  -0.500 0.0000 -0.500 10  !X
  -0.375 0.2500 -0.375 30  !U
  0.0000 0.0000 0.0000 20  !G
